20
68
7
26
19
57
41
82
29
40
0 1
0 5
0 7
0 9
0 10
0 11
0 15
1 2
1 3
1 8
1 14
2 3
2 4
2 10
2 11
2 16
2 17
3 5
3 11
3 14
3 16
3 17
3 18
3 19
4 5
4 6
4 7
4 8
4 11
4 12
4 15
4 18
5 7
5 9
5 10
5 11
5 12
5 14
5 16
5 17
5 19
6 7
6 10
6 16
7 11
7 13
7 15
7 18
8 10
8 11
8 12
8 14
8 16
9 10
9 12
9 13
9 14
9 17
10 11
10 14
10 16
11 19
12 13
12 16
13 15
13 16
13 17
17 19
13 9 19
15 1 18
10 11 2
16 7 12
14 5 8
6 3 4
0 17
